30
1 0 65
2 0 24
2 1 44
3 0 12
3 1 62
3 2 60
4 0 72
4 1 35
4 2 25
4 3 57
5 0 55
5 1 75
5 2 18
5 3 74
5 4 11
6 0 4
6 1 75
6 2 1
6 3 42
6 4 62
6 5 20
7 0 41
7 1 26
7 2 42
7 3 57
7 4 28
7 5 11
7 6 8
8 0 76
8 1 29
8 2 4
8 3 21
8 4 23
8 5 47
8 6 39
8 7 15
9 0 49
9 1 42
9 2 16
9 3 51
9 4 15
9 5 29
9 6 51
9 7 39
9 8 72
10 0 20
10 1 67
10 2 16
10 3 28
10 4 57
10 5 71
10 6 17
10 7 36
10 8 80
10 9 17
11 0 27
11 1 46
11 2 77
11 3 34
11 4 59
11 5 48
11 6 58
11 7 48
11 8 80
11 9 11
11 10 14
12 0 72
12 1 24
12 2 64
12 3 12
12 4 22
12 5 72
12 6 40
12 7 62
12 8 34
12 9 24
12 10 77
12 11 28
13 0 18
13 1 61
13 2 4
13 3 63
13 4 45
13 5 9
13 6 36
13 7 26
13 8 80
13 9 7
13 10 73
13 11 23
13 12 65
14 0 39
14 1 14
14 2 71
14 3 31
14 4 76
14 5 80
14 6 34
14 7 77
14 8 20
14 9 20
14 10 36
14 11 16
14 12 20
14 13 66
15 0 48
15 1 80
15 2 71
15 3 59
15 4 23
15 5 63
15 6 7
15 7 66
15 8 30
15 9 70
15 10 18
15 11 74
15 12 48
15 13 64
15 14 45
16 0 25
16 1 29
16 2 65
16 3 80
16 4 64
16 5 1
16 6 49
16 7 55
16 8 74
16 9 75
16 10 40
16 11 56
16 12 78
16 13 79
16 14 77
16 15 55
17 0 65
17 1 79
17 2 66
17 3 6
17 4 62
17 5 45
17 6 24
17 7 37
17 8 12
17 9 24
17 10 40
17 11 3
17 12 71
17 13 6
17 14 31
17 15 38
17 16 47
18 0 12
18 1 11
18 2 21
18 3 7
18 4 17
18 5 39
18 6 56
18 7 73
18 8 43
18 9 28
18 10 2
18 11 46
18 12 79
18 13 76
18 14 7
18 15 45
18 16 38
18 17 18
19 0 75
19 1 25
19 2 7
19 3 21
19 4 1
19 5 46
19 6 3
19 7 67
19 8 66
19 9 6
19 10 12
19 11 44
19 12 25
19 13 20
19 14 40
19 15 10
19 16 32
19 17 37
19 18 33
20 0 50
20 1 20
20 2 13
20 3 6
20 4 68
20 5 23
20 6 44
20 7 19
20 8 21
20 9 7
20 10 6
20 11 72
20 12 70
20 13 54
20 14 48
20 15 5
20 16 20
20 17 52
20 18 10
20 19 48
21 0 37
21 1 32
21 2 32
21 3 20
21 4 47
21 5 28
21 6 68
21 7 78
21 8 9
21 9 54
21 10 50
21 11 24
21 12 34
21 13 26
21 14 47
21 15 33
21 16 15
21 17 8
21 18 64
21 19 79
21 20 14
22 0 3
22 1 48
22 2 26
22 3 9
22 4 43
22 5 30
22 6 69
22 7 28
22 8 73
22 9 54
22 10 33
22 11 43
22 12 14
22 13 26
22 14 55
22 15 49
22 16 37
22 17 38
22 18 67
22 19 68
22 20 25
22 21 74
23 0 16
23 1 43
23 2 41
23 3 15
23 4 22
23 5 64
23 6 46
23 7 77
23 8 70
23 9 44
23 10 67
23 11 8
23 12 73
23 13 37
23 14 59
23 15 16
23 16 80
23 17 49
23 18 72
23 19 35
23 20 19
23 21 12
23 22 73
24 0 22
24 1 50
24 2 5
24 3 7
24 4 5
24 5 72
24 6 72
24 7 37
24 8 62
24 9 80
24 10 18
24 11 75
24 12 36
24 13 17
24 14 66
24 15 16
24 16 69
24 17 66
24 18 17
24 19 73
24 20 51
24 21 68
24 22 72
24 23 27
25 0 76
25 1 77
25 2 29
25 3 18
25 4 24
25 5 9
25 6 63
25 7 63
25 8 4
25 9 77
25 10 79
25 11 8
25 12 68
25 13 35
25 14 6
25 15 7
25 16 6
25 17 3
25 18 62
25 19 9
25 20 61
25 21 36
25 22 36
25 23 58
25 24 69
26 0 75
26 1 28
26 2 6
26 3 59
26 4 19
26 5 31
26 6 13
26 7 12
26 8 15
26 9 56
26 10 67
26 11 19
26 12 16
26 13 59
26 14 13
26 15 18
26 16 20
26 17 48
26 18 58
26 19 66
26 20 10
26 21 65
26 22 69
26 23 48
26 24 3
26 25 72
27 0 75
27 1 66
27 2 67
27 3 31
27 4 11
27 5 29
27 6 32
27 7 77
27 8 36
27 9 71
27 10 3
27 11 17
27 12 57
27 13 33
27 14 72
27 15 67
27 16 78
27 17 60
27 18 59
27 19 37
27 20 46
27 21 44
27 22 45
27 23 42
27 24 37
27 25 1
27 26 73
28 0 47
28 1 7
28 2 33
28 3 80
28 4 14
28 5 39
28 6 2
28 7 58
28 8 16
28 9 40
28 10 7
28 11 34
28 12 19
28 13 30
28 14 66
28 15 74
28 16 32
28 17 6
28 18 68
28 19 5
28 20 42
28 21 9
28 22 21
28 23 74
28 24 1
28 25 47
28 26 32
28 27 35
29 0 28
29 1 77
29 2 1
29 3 76
29 4 26
29 5 48
29 6 19
29 7 6
29 8 34
29 9 3
29 10 71
29 11 71
29 12 63
29 13 71
29 14 48
29 15 10
29 16 77
29 17 24
29 18 5
29 19 20
29 20 9
29 21 64
29 22 35
29 23 23
29 24 41
29 25 60
29 26 39
29 27 68
29 28 35
